SimulateSamplingPython/aed093ef635d477fafb8e62915673fdb-pulp.mps
*SENSE:Minimize
NAME          MODEL
ROWS
 N  OBJ
 L  C0000000
 L  C0000001
 G  C0000002
 L  C0000003
 L  C0000004
 G  C0000005
 G  C0000006
 G  C0000007
 G  C0000008
COLUMNS
    MARK      'MARKER'                 'INTORG'
    X0000000  C0000001   1.000000000000e+00
    X0000000  C0000002   1.000000000000e+00
    X0000000  C0000003   3.080000000000e+02
    X0000000  C0000004   1.517000000000e+03
    X0000000  C0000005   1.517000000000e+03
    X0000000  C0000006   1.000000000000e+00
    MARK      'MARKER'                 'INTEND'
    MARK      'MARKER'                 'INTORG'
    X0000001  C0000001  -1.000000000000e+00
    X0000001  C0000002  -1.000000000000e+00
    X0000001  C0000003  -3.070000000000e+02
    X0000001  C0000004  -1.516000000000e+03
    X0000001  C0000005  -1.516000000000e+03
    X0000001  C0000007   1.000000000000e+00
    MARK      'MARKER'                 'INTEND'
    MARK      'MARKER'                 'INTORG'
    X0000002  C0000004   1.000000000000e+00
    X0000002  C0000005   1.000000000000e+00
    X0000002  C0000008   1.000000000000e+00
    MARK      'MARKER'                 'INTEND'
    MARK      'MARKER'                 'INTORG'
    X0000003  C0000000   1.000000000000e+00
    X0000003  C0000001  -1.000000000000e+00
    X0000003  C0000002   1.000000000000e+00
    X0000003  C0000003  -1.000000000000e+00
    X0000003  C0000004  -1.000000000000e+00
    X0000003  C0000005   1.000000000000e+00
    X0000003  OBJ        1.000000000000e+00
    MARK      'MARKER'                 'INTEND'
RHS
    RHS       C0000000   0.000000000000e+00
    RHS       C0000001  -2.000000000000e+00
    RHS       C0000002  -2.000000000000e+00
    RHS       C0000003  -6.130000000000e+02
    RHS       C0000004  -3.036000000000e+03
    RHS       C0000005  -3.036000000000e+03
    RHS       C0000006  -2.147483648000e+09
    RHS       C0000007  -2.147483648000e+09
    RHS       C0000008  -2.147483648000e+09
BOUNDS
 LO BND       X0000000  -1.120615767855e+09
 UP BND       X0000000   1.009633359006e+09
 LO BND       X0000001  -1.652431003230e+09
 UP BND       X0000001   1.948505561864e+09
 LO BND       X0000002  -1.010493405652e+09
 UP BND       X0000002   6.280676605646e+08
 FR BND       X0000003
ENDATA
